unsat
(:binary-propagations  15
 :conflicts            1
 :final-checks         1
 :max-generation       1
 :max-memory           23.04
 :memory               20.81
 :mk-bool-var          307
 :mk-clause            112
 :mk-clause-binary     550
 :num-allocs           5499634
 :num-checks           1
 :propagations         15
 :quant-instantiations 93
 :restarts             1
 :rlimit-count         62202
 :time                 0.02)
